benchmarks/VRPTW/TSPTW/solution/n20w120.003.txt.solution
1 6 20 14 2 4 9 10 17 5 3 8 16 15 18 12 19 11 21 13 7 
303
